c 125_3_checker.cnf
c
c field = 125
c formula set type = 3_checker
c
p cnf 4 64
242 
244 
246 
-240 
243 
245 
247 
-241 
242 
244 
246 
-250 
243 
245 
247 
-251 
244 
246 
250 
-242 
245 
247 
251 
-243 
244 
246 
250 
-252 
245 
247 
251 
-253 
246 
250 
252 
-244 
247 
251 
253 
-245 
246 
250 
252 
-254 
247 
251 
253 
-255 
250 
252 
254 
-246 
251 
253 
255 
-247 
250 
252 
254 
-256 
251 
253 
255 
-257 
158 
188 
218 
-128 
159 
189 
219 
-129 
158 
188 
218 
-278 
159 
189 
219 
-279 
188 
218 
278 
-158 
189 
219 
279 
-159 
188 
218 
278 
-308 
189 
219 
279 
-309 
218 
278 
308 
-188 
219 
279 
309 
-189 
218 
278 
308 
-338 
219 
279 
309 
-339 
278 
308 
338 
-218 
279 
309 
339 
-219 
278 
308 
338 
-368 
279 
309 
339 
-369 
152 
184 
216 
-120 
153 
185 
217 
-121 
152 
184 
216 
-280 
153 
185 
217 
-281 
184 
216 
280 
-152 
185 
217 
281 
-153 
184 
216 
280 
-312 
185 
217 
281 
-313 
216 
280 
312 
-184 
217 
281 
313 
-185 
216 
280 
312 
-344 
217 
281 
313 
-345 
280 
312 
344 
-216 
281 
313 
345 
-217 
280 
312 
344 
-376 
281 
313 
345 
-377 
164 
192 
220 
-136 
165 
193 
221 
-137 
164 
192 
220 
-276 
165 
193 
221 
-277 
192 
220 
276 
-164 
193 
221 
277 
-165 
192 
220 
276 
-304 
193 
221 
277 
-305 
220 
276 
304 
-192 
221 
277 
305 
-193 
220 
276 
304 
-332 
221 
277 
305 
-333 
276 
304 
332 
-220 
277 
305 
333 
-221 
276 
304 
332 
-360 
277 
305 
333 
-361 
